Grasp exp. instance_n_20_m_5_id_2.lp tipoLifted 0 szPool 5 nIteration 100 alpha 0.4 
Academic license - for non-commercial use only
Read LP format model from file ../input/instancesGenerated/instance_n_20_m_5_id_2.lp
Reading time = 0.00 seconds
: 5 rows, 20 columns, 100 nonzeros
Optimize a model with 5 rows, 20 columns and 100 nonzeros
Variable types: 0 continuous, 20 integer (20 binary)
Coefficient statistics:
  Matrix range     [1e+00, 1e+01]
  Objective range  [1e+00, 1e+01]
  Bounds range     [1e+00, 1e+00]
  RHS range        [5e+01, 6e+01]
Found heuristic solution: objective 68.0000000

Explored 0 nodes (0 simplex iterations) in 0.00 seconds
Thread count was 1 (of 8 available processors)

Solution count 1: 68 
No other solutions better than 0

Solution limit reached
Best objective 6.800000000000e+01, best bound -, gap -
C_1:	 4.00 x_1  = 1.000000 + 9.00 x_2  = 0.000000 + 5.00 x_3  = 1.000000 + 10.00 x_4  = 0.000000 + 5.00 x_5  = 0.000000 + 4.00 x_6  = 1.000000 + 4.00 x_7  = 1.000000 + 2.00 x_8  = 1.000000 + 3.00 x_9  = 0.308131 + 1.00 x_10  = 0.196862 + 7.00 x_11  = 1.000000 + 4.00 x_12  = 1.000000 + 10.00 x_13  = 0.299572 + 6.00 x_14  = 0.000000 + 1.00 x_15  = 0.883024 + 10.00 x_16  = 1.000000 + 6.00 x_17  = 1.000000 + 9.00 x_18  = 0.000000 + 1.00 x_19  = 0.000000 + 2.00 x_20  = 0.000000 <= 51.00
C_2:	 6.00 x_1  = 1.000000 + 10.00 x_2  = 0.000000 + 10.00 x_3  = 1.000000 + 6.00 x_4  = 0.000000 + 8.00 x_5  = 0.000000 + 3.00 x_6  = 1.000000 + 6.00 x_7  = 1.000000 + 3.00 x_8  = 1.000000 + 6.00 x_9  = 0.308131 + 10.00 x_10  = 0.196862 + 7.00 x_11  = 1.000000 + 9.00 x_12  = 1.000000 + 1.00 x_13  = 0.299572 + 2.00 x_14  = 0.000000 + 1.00 x_15  = 0.883024 + 7.00 x_16  = 1.000000 + 7.00 x_17  = 1.000000 + 6.00 x_18  = 0.000000 + 9.00 x_19  = 0.000000 + 9.00 x_20  = 0.000000 <= 63.00
C_3:	 6.00 x_1  = 1.000000 + 7.00 x_2  = 0.000000 + 2.00 x_3  = 1.000000 + 5.00 x_4  = 0.000000 + 2.00 x_5  = 0.000000 + 4.00 x_6  = 1.000000 + 6.00 x_7  = 1.000000 + 9.00 x_8  = 1.000000 + 5.00 x_9  = 0.308131 + 6.00 x_10  = 0.196862 + 10.00 x_11  = 1.000000 + 2.00 x_12  = 1.000000 + 7.00 x_13  = 0.299572 + 9.00 x_14  = 0.000000 + 7.00 x_15  = 0.883024 + 4.00 x_16  = 1.000000 + 3.00 x_17  = 1.000000 + 3.00 x_18  = 0.000000 + 8.00 x_19  = 0.000000 + 9.00 x_20  = 0.000000 <= 57.00
C_4:	 4.00 x_1  = 1.000000 + 5.00 x_2  = 0.000000 + 9.00 x_3  = 1.000000 + 6.00 x_4  = 0.000000 + 8.00 x_5  = 0.000000 + 9.00 x_6  = 1.000000 + 3.00 x_7  = 1.000000 + 4.00 x_8  = 1.000000 + 4.00 x_9  = 0.308131 + 3.00 x_10  = 0.196862 + 4.00 x_11  = 1.000000 + 2.00 x_12  = 1.000000 + 9.00 x_13  = 0.299572 + 7.00 x_14  = 0.000000 + 8.00 x_15  = 0.883024 + 2.00 x_16  = 1.000000 + 2.00 x_17  = 1.000000 + 4.00 x_18  = 0.000000 + 1.00 x_19  = 0.000000 + 8.00 x_20  = 0.000000 <= 51.00
C_5:	 9.00 x_1  = 1.000000 + 2.00 x_2  = 0.000000 + 9.00 x_3  = 1.000000 + 6.00 x_4  = 0.000000 + 3.00 x_5  = 0.000000 + 6.00 x_6  = 1.000000 + 1.00 x_7  = 1.000000 + 5.00 x_8  = 1.000000 + 10.00 x_9  = 0.308131 + 9.00 x_10  = 0.196862 + 5.00 x_11  = 1.000000 + 5.00 x_12  = 1.000000 + 5.00 x_13  = 0.299572 + 4.00 x_14  = 0.000000 + 3.00 x_15  = 0.883024 + 2.00 x_16  = 1.000000 + 2.00 x_17  = 1.000000 + 5.00 x_18  = 0.000000 + 7.00 x_19  = 0.000000 + 8.00 x_20  = 0.000000 <= 53.00
Solution initial: 87.753210 
Number Constraints Used in Cover:5
GRASP Method!
Number cuts repeat: 0
value: 87.753210
Number Constraints Used in Cover:15
GRASP Method!
Number cuts repeat: 0
value: 87.753210
Number Constraints Used in Cover:27
GRASP Method!
Number cuts repeat: 0
value: 87.753210
Number Constraints Used in Cover:36
GRASP Method!
Number cuts repeat: 0
value: 87.753210
Number Constraints Used in Cover:52
GRASP Method!
Number cuts repeat: 0
value: 87.753210
Number Constraints Used in Cover:68
GRASP Method!
Number cuts repeat: 0
value: 87.751269
Number Constraints Used in Cover:78
GRASP Method!
Number cuts repeat: 0
value: 87.751269
Number Constraints Used in Cover:95
GRASP Method!
Number cuts repeat: 0
value: 87.751269
Number Constraints Used in Cover:108
GRASP Method!
Number cuts repeat: 0
value: 87.751269
Number Constraints Used in Cover:121
GRASP Method!
Number cuts repeat: 0
value: 87.725702
Number Constraints Used in Cover:126
GRASP Method!
Number cuts repeat: 0
value: 87.725702
Number Constraints Used in Cover:138
GRASP Method!
Number cuts repeat: 0
value: 87.725702
Number Constraints Used in Cover:150
GRASP Method!
Number cuts repeat: 0
value: 87.725702
Number Constraints Used in Cover:161
GRASP Method!
Number cuts repeat: 0
value: 87.725702
Number Constraints Used in Cover:175
GRASP Method!
Number cuts repeat: 0
value: 87.725702
Number Constraints Used in Cover:197
GRASP Method!
Number cuts repeat: 0
value: 87.725702
Number Constraints Used in Cover:217
GRASP Method!
Number cuts repeat: 0
value: 87.725702
Number Constraints Used in Cover:234
GRASP Method!
Number cuts repeat: 0
value: 87.725702
Number Constraints Used in Cover:257
GRASP Method!
Number cuts repeat: 0
value: 87.725702
Number Constraints Used in Cover:274
GRASP Method!
Number cuts repeat: 0
value: 87.725702
Number Constraints Used in Cover:290
GRASP Method!
Number cuts repeat: 0
value: 87.725702
Number Constraints Used in Cover:315
GRASP Method!
Number cuts repeat: 0
value: 87.725702
Number Constraints Used in Cover:329
GRASP Method!
Number cuts repeat: 0
value: 87.725702
Number Constraints Used in Cover:339
GRASP Method!
Number cuts repeat: 0
value: 87.725702
Number Constraints Used in Cover:358
GRASP Method!
Number cuts repeat: 0
value: 87.725702
Number Constraints Used in Cover:386
GRASP Method!
Number cuts repeat: 0
value: 87.725702
Number Constraints Used in Cover:401
GRASP Method!
Number cuts repeat: 0
value: 87.725702
Number Constraints Used in Cover:414
GRASP Method!
Number cuts repeat: 0
value: 87.725702
Number Constraints Used in Cover:428
GRASP Method!
Number cuts repeat: 0
value: 87.725702
Number Constraints Used in Cover:444
GRASP Method!
Number cuts repeat: 0
value: 87.725702
Number Constraints Used in Cover:462
GRASP Method!
Number cuts repeat: 0
value: 87.725702
Number Constraints Used in Cover:475
GRASP Method!
Number cuts repeat: 0
value: 87.725702
Number Constraints Used in Cover:488
GRASP Method!
Number cuts repeat: 0
value: 87.725702
Number Constraints Used in Cover:494
GRASP Method!
Number cuts repeat: 0
value: 87.725702
Number Constraints Used in Cover:513
GRASP Method!
Number cuts repeat: 0
value: 87.725702
Number Constraints Used in Cover:526
GRASP Method!
Number cuts repeat: 0
value: 87.725702
Number Constraints Used in Cover:546
GRASP Method!
Number cuts repeat: 0
value: 87.725702
Number Constraints Used in Cover:555
GRASP Method!
Number cuts repeat: 0
value: 87.725702
Number Constraints Used in Cover:571
GRASP Method!
Number cuts repeat: 0
value: 87.725702
Number Constraints Used in Cover:577
GRASP Method!
Number cuts repeat: 0
value: 87.725702
Number Constraints Used in Cover:592
GRASP Method!
Number cuts repeat: 0
value: 87.725702
Number Constraints Used in Cover:603
GRASP Method!
Number cuts repeat: 0
value: 87.725702
Number Constraints Used in Cover:615
GRASP Method!
Number cuts repeat: 0
value: 87.725702
Number Constraints Used in Cover:621
GRASP Method!
Number cuts repeat: 0
value: 87.725702
Number Constraints Used in Cover:635
GRASP Method!
Number cuts repeat: 0
value: 87.725702
Number Constraints Used in Cover:651
GRASP Method!
Number cuts repeat: 0
value: 87.725702
Number Constraints Used in Cover:667
GRASP Method!
Number cuts repeat: 0
value: 87.725702
Number Constraints Used in Cover:680
GRASP Method!
Number cuts repeat: 0
value: 87.725702
Number Constraints Used in Cover:692
GRASP Method!
Number cuts repeat: 0
value: 87.725702
Number Constraints Used in Cover:700
GRASP Method!
Number cuts repeat: 0
value: 87.725702
Number Constraints Used in Cover:705
GRASP Method!
Number cuts repeat: 0
value: 87.725702
Number Constraints Used in Cover:713
GRASP Method!
Number cuts repeat: 0
value: 87.725702
Number Constraints Used in Cover:721
GRASP Method!
Number cuts repeat: 0
value: 87.725702
Number Constraints Used in Cover:728
GRASP Method!
Number cuts repeat: 0
value: 87.725702
Number Constraints Used in Cover:743
GRASP Method!
Number cuts repeat: 0
value: 87.725702
Number Cuts Final: 744
